c "500186.clq"
p edge 120 464
e 1 5
e 1 6
e 1 7
e 1 10
e 1 13
e 1 19
e 1 23
e 1 27
e 1 35
e 1 43
e 1 51
e 1 63
e 1 65
e 1 69
e 1 78
e 1 87
e 1 88
e 1 118
e 2 5
e 2 8
e 2 9
e 2 12
e 2 17
e 2 18
e 2 32
e 2 48
e 2 53
e 2 61
e 2 62
e 2 83
e 2 92
e 2 110
e 2 112
e 3 5
e 3 6
e 3 7
e 3 8
e 3 9
e 3 10
e 3 13
e 3 16
e 3 20
e 3 25
e 3 26
e 3 32
e 3 36
e 3 43
e 3 45
e 3 49
e 3 51
e 3 66
e 3 87
e 3 97
e 3 100
e 3 102
e 3 111
e 3 118
e 3 119
e 4 5
e 4 6
e 4 20
e 4 30
e 4 55
e 4 56
e 4 58
e 4 106
e 4 109
e 5 6
e 5 7
e 5 8
e 5 9
e 5 10
e 5 11
e 5 14
e 5 15
e 5 16
e 5 17
e 5 18
e 5 19
e 5 21
e 5 22
e 5 23
e 5 24
e 5 38
e 5 40
e 5 42
e 5 43
e 5 48
e 5 53
e 5 54
e 5 59
e 5 67
e 5 72
e 5 75
e 5 81
e 5 89
e 5 115
e 6 7
e 6 8
e 6 10
e 6 11
e 6 12
e 6 13
e 6 14
e 6 15
e 6 17
e 6 20
e 6 21
e 6 24
e 6 25
e 6 31
e 6 32
e 6 33
e 6 38
e 6 39
e 6 41
e 6 42
e 6 43
e 6 45
e 6 48
e 6 53
e 6 55
e 6 57
e 6 63
e 6 71
e 6 76
e 6 77
e 6 79
e 6 86
e 6 91
e 6 98
e 6 99
e 6 101
e 6 102
e 6 106
e 6 108
e 6 116
e 7 9
e 7 15
e 7 18
e 7 24
e 7 26
e 7 28
e 7 34
e 7 37
e 7 55
e 7 109
e 7 110
e 7 111
e 7 117
e 8 11
e 8 13
e 8 16
e 8 19
e 8 22
e 8 23
e 8 28
e 8 56
e 8 64
e 8 66
e 8 67
e 8 94
e 8 100
e 8 110
e 8 112
e 9 11
e 9 12
e 9 16
e 9 21
e 9 26
e 9 49
e 9 57
e 9 62
e 9 64
e 9 79
e 9 80
e 9 93
e 9 96
e 9 107
e 9 120
e 10 27
e 10 29
e 10 46
e 10 69
e 10 89
e 10 108
e 11 12
e 11 14
e 11 17
e 11 21
e 11 24
e 11 25
e 11 29
e 11 37
e 11 38
e 11 41
e 11 44
e 11 57
e 11 59
e 11 63
e 11 72
e 11 74
e 11 75
e 11 78
e 11 79
e 11 113
e 11 118
e 12 14
e 12 18
e 12 39
e 12 47
e 12 73
e 12 105
e 12 113
e 13 20
e 13 22
e 13 33
e 13 34
e 13 37
e 13 46
e 13 47
e 13 48
e 13 49
e 13 54
e 13 56
e 13 61
e 13 100
e 13 110
e 14 15
e 14 73
e 14 109
e 15 19
e 15 22
e 15 30
e 15 36
e 15 42
e 15 44
e 15 60
e 15 68
e 15 80
e 15 85
e 15 96
e 15 103
e 16 30
e 16 82
e 16 98
e 17 50
e 17 55
e 17 74
e 18 26
e 18 27
e 18 35
e 18 47
e 18 53
e 18 56
e 18 111
e 19 31
e 19 33
e 19 69
e 19 70
e 19 77
e 19 79
e 19 85
e 19 86
e 20 28
e 20 32
e 20 92
e 20 93
e 20 103
e 21 27
e 21 34
e 21 36
e 21 40
e 21 68
e 21 98
e 21 118
e 22 23
e 22 25
e 22 28
e 22 33
e 22 42
e 22 45
e 22 47
e 22 52
e 22 60
e 22 63
e 22 81
e 22 89
e 22 113
e 23 29
e 23 30
e 23 35
e 23 41
e 23 46
e 23 59
e 23 64
e 23 83
e 23 86
e 23 93
e 23 99
e 23 108
e 23 112
e 24 29
e 24 31
e 24 58
e 25 49
e 25 52
e 25 70
e 25 95
e 26 65
e 26 67
e 26 68
e 26 77
e 26 87
e 26 95
e 27 31
e 27 35
e 27 52
e 27 59
e 27 88
e 28 44
e 28 54
e 28 86
e 28 89
e 28 104
e 28 117
e 29 51
e 29 65
e 30 34
e 30 68
e 30 83
e 31 36
e 31 39
e 31 50
e 31 90
e 31 97
e 31 101
e 31 115
e 31 119
e 32 38
e 32 84
e 33 39
e 33 85
e 33 101
e 34 37
e 34 40
e 34 70
e 34 72
e 34 101
e 34 105
e 34 120
e 35 41
e 35 44
e 35 52
e 35 57
e 35 58
e 35 73
e 35 76
e 35 78
e 35 84
e 36 50
e 36 120
e 38 54
e 38 60
e 38 73
e 38 87
e 38 94
e 38 105
e 38 114
e 39 40
e 39 45
e 39 58
e 39 90
e 39 107
e 40 50
e 41 46
e 41 51
e 41 60
e 41 64
e 41 82
e 41 102
e 41 109
e 42 85
e 43 81
e 43 84
e 43 114
e 43 120
e 44 74
e 45 61
e 47 62
e 47 65
e 47 96
e 47 107
e 48 95
e 50 100
e 51 69
e 51 94
e 52 75
e 53 61
e 53 84
e 54 67
e 54 90
e 55 98
e 55 99
e 55 116
e 56 66
e 56 99
e 57 72
e 57 76
e 57 78
e 57 115
e 58 75
e 58 91
e 58 93
e 58 104
e 58 106
e 59 62
e 59 66
e 59 80
e 59 82
e 61 91
e 61 105
e 62 81
e 62 111
e 62 112
e 63 76
e 64 71
e 65 83
e 65 94
e 65 107
e 66 70
e 66 96
e 67 71
e 69 71
e 69 88
e 69 119
e 70 97
e 70 116
e 71 77
e 71 90
e 71 92
e 71 114
e 72 74
e 73 80
e 74 104
e 75 82
e 75 91
e 75 119
e 78 92
e 78 102
e 78 113
e 80 95
e 81 104
e 81 108
e 81 117
e 83 88
e 87 97
e 91 103
e 91 114
e 91 115
e 92 116
e 97 106
e 99 103
e 108 117
